c
c start with comments
c
p cnf 22 16
9 -1 18 0
1 22 0
16 12 0
7 19 0
13 -9 3 2 14 -10 0
-13 -7 -23 0
-18 -14 0
4 8 0
-10 15 -22 -17 -7 -10 0
-12 -4 0
6 -17 2 0
-2 -19 0
-5 11 2 0
17 14 -22 0
15 21 -13 0
2 -22 -8 2 0